
n_res = 4;
rcap = [44, 52, 463, 488];
rtype = [1, 1, 2, 2];
n_tasks = 50;
modes =  [{1, 2, 3, 4, 5, 6}, {7, 8, 9, 10, 11, 12}, {13, 14, 15, 16, 17, 18}, {19, 20, 21, 22, 23, 24}, {25, 26, 27, 28, 29, 30}, {31, 32, 33, 34, 35, 36}, {37, 38, 39, 40, 41, 42}, {43, 44, 45, 46, 47, 48}, {49, 50, 51, 52, 53, 54}, {55, 56, 57, 58, 59, 60}, {61, 62, 63, 64, 65, 66}, {67, 68, 69, 70, 71, 72}, {73, 74, 75, 76, 77, 78}, {79, 80, 81, 82, 83, 84}, {85, 86, 87, 88, 89, 90}, {91, 92, 93, 94, 95, 96}, {97, 98, 99, 100, 101, 102}, {103, 104, 105, 106, 107, 108}, {109, 110, 111, 112, 113, 114}, {115, 116, 117, 118, 119, 120}, {121, 122, 123, 124, 125, 126}, {127, 128, 129, 130, 131, 132}, {133, 134, 135, 136, 137, 138}, {139, 140, 141, 142, 143, 144}, {145, 146, 147, 148, 149, 150}, {151, 152, 153, 154, 155, 156}, {157, 158, 159, 160, 161, 162}, {163, 164, 165, 166, 167, 168}, {169, 170, 171, 172, 173, 174}, {175, 176, 177, 178, 179, 180}, {181, 182, 183, 184, 185, 186}, {187, 188, 189, 190, 191, 192}, {193, 194, 195, 196, 197, 198}, {199, 200, 201, 202, 203, 204}, {205, 206, 207, 208, 209, 210}, {211, 212, 213, 214, 215, 216}, {217, 218, 219, 220, 221, 222}, {223, 224, 225, 226, 227, 228}, {229, 230, 231, 232, 233, 234}, {235, 236, 237, 238, 239, 240}, {241, 242, 243, 244, 245, 246}, {247, 248, 249, 250, 251, 252}, {253, 254, 255, 256, 257, 258}, {259, 260, 261, 262, 263, 264}, {265, 266, 267, 268, 269, 270}, {271, 272, 273, 274, 275, 276}, {277, 278, 279, 280, 281, 282}, {283, 284, 285, 286, 287, 288}, {289, 290, 291, 292, 293, 294}, {295, 296, 297, 298, 299, 300}];
succ =  [{10, 7, 2}, {15, 5}, {17, 15, 13, 12, 11}, {15, 7}, {17, 13, 12, 11}, {13, 8}, {19, 17, 13, 11}, {26, 21, 17, 14, 12}, {27, 26, 19, 17, 16, 14}, {27, 26, 22, 19, 18, 16}, {26, 16, 14}, {22, 19, 18, 16}, {32, 29, 26, 25, 24, 23, 21}, {32, 31, 25, 22, 18}, {32, 31, 27, 25, 18}, {31, 25, 24, 23, 20}, {32, 31, 22, 20}, {24, 23, 20}, {32, 29, 23}, {34, 30, 29, 28}, {37, 33, 31, 27}, {23}, {39, 34, 30, 28}, {39, 34, 30, 28}, {34, 30, 28}, {39, 37, 36, 33}, {34, 30}, {37, 36, 33}, {44, 43, 41, 40, 39, 38}, {43, 40, 38, 35}, {40, 39, 38, 35}, {33}, {46, 44, 43, 41, 38}, {48, 43, 36}, {50, 49, 47, 46, 44, 41}, {40, 38}, {48, 47, 46, 43, 42}, {50, 49, 47, 42}, {49, 48, 46, 45}, {47, 46, 45}, {48, 42}, {45}, {45}, {45}, {}, {}, {}, {}, {}, {}];
n_opt = 300;
dur = [4, 5, 11, 12, 13, 20, 1, 4, 5, 6, 13, 14, 5, 8, 13, 15, 19, 20, 4, 8, 10, 11, 12, 18, 9, 10, 11, 12, 18, 20, 3, 7, 8, 12, 15, 18, 5, 6, 7, 11, 14, 16, 1, 3, 5, 11, 12, 13, 3, 4, 8, 9, 11, 19, 1, 2, 4, 5, 6, 13, 1, 6, 11, 12, 15, 20, 3, 8, 10, 15, 16, 18, 2, 6, 7, 8, 9, 12, 4, 6, 7, 9, 10, 12, 3, 5, 7, 9, 16, 17, 3, 5, 6, 11, 16, 17, 2, 8, 12, 18, 19, 20, 3, 5, 6, 9, 14, 20, 3, 4, 6, 9, 12, 13, 3, 7, 10, 11, 15, 16, 9, 10, 11, 12, 14, 20, 3, 4, 5, 12, 15, 17, 4, 5, 7, 9, 12, 13, 1, 2, 4, 6, 16, 18, 1, 2, 3, 4, 9, 13, 2, 5, 9, 10, 14, 15, 6, 14, 16, 17, 18, 19, 1, 2, 5, 6, 7, 14, 1, 2, 4, 5, 10, 15, 9, 12, 13, 14, 17, 20, 6, 8, 11, 12, 14, 20, 2, 4, 5, 6, 11, 16, 2, 3, 9, 11, 13, 14, 1, 6, 8, 13, 14, 16, 1, 2, 3, 4, 7, 8, 4, 5, 6, 7, 8, 9, 2, 4, 10, 11, 14, 18, 6, 9, 13, 17, 18, 20, 2, 7, 14, 16, 19, 20, 3, 5, 6, 8, 17, 20, 1, 2, 7, 8, 11, 17, 1, 8, 9, 10, 11, 17, 3, 7, 8, 9, 16, 17, 1, 6, 7, 9, 11, 13, 9, 11, 13, 16, 17, 18, 2, 3, 7, 9, 12, 19, 1, 2, 10, 14, 15, 16, 3, 8, 9, 11, 17, 18, 1, 9, 10, 13, 14, 15, 3, 8, 9, 13, 14, 20];
rreq = [|7, 7, 6, 5, 4, 4, 14, 13, 13, 12, 12, 12, 12, 9, 8, 6, 5, 3, 15, 14, 11, 9, 7, 6, 7, 5, 5, 4, 4, 3, 15, 13, 11, 9, 6, 4, 14, 13, 13, 12, 10, 9, 14, 14, 14, 14, 14, 14, 15, 13, 11, 10, 7, 7, 12, 11, 11, 10, 10, 9, 18, 18, 17, 17, 15, 15, 17, 13, 11, 8, 4, 4, 11, 11, 7, 7, 4, 2, 16, 12, 9, 9, 3, 1, 7, 6, 4, 3, 2, 1, 11, 8, 8, 6, 5, 2, 9, 8, 8, 7, 7, 7, 16, 16, 16, 16, 16, 16, 9, 8, 8, 8, 8, 8, 12, 10, 9, 9, 8, 6, 7, 7, 6, 6, 5, 5, 15, 15, 15, 15, 15, 15, 20, 15, 15, 12, 8, 6, 8, 5, 4, 4, 2, 2, 16, 15, 13, 10, 10, 8, 10, 9, 9, 7, 7, 5, 15, 12, 9, 9, 6, 3, 15, 15, 13, 12, 11, 11, 9, 9, 7, 6, 3, 3, 14, 13, 13, 13, 13, 13, 9, 9, 9, 9, 9, 9, 14, 13, 13, 12, 12, 12, 17, 13, 12, 11, 7, 4, 14, 14, 13, 13, 13, 12, 13, 12, 10, 10, 9, 8, 4, 3, 3, 2, 2, 2, 15, 14, 14, 13, 13, 13, 18, 17, 15, 14, 14, 13, 10, 7, 6, 4, 3, 3, 5, 5, 5, 5, 5, 5, 18, 17, 15, 11, 8, 6, 12, 11, 10, 8, 8, 7, 9, 8, 7, 7, 5, 5, 11, 11, 10, 9, 8, 8, 9, 8, 7, 7, 5, 5, 10, 10, 8, 5, 5, 3, 17, 13, 13, 11, 7, 7, 13, 13, 13, 13, 13, 13, 8, 7, 6, 5, 4, 3, 14, 12, 9, 8, 5, 4
 |11, 10, 10, 9, 8, 8, 9, 9, 9, 9, 9, 9, 14, 10, 7, 6, 4, 1, 16, 15, 11, 8, 7, 5, 12, 12, 11, 10, 9, 9, 5, 5, 5, 5, 5, 5, 11, 9, 9, 8, 7, 6, 19, 16, 13, 9, 7, 5, 18, 14, 11, 9, 3, 2, 5, 4, 4, 4, 4, 4, 14, 14, 13, 12, 10, 9, 12, 10, 10, 10, 9, 8, 13, 11, 8, 5, 5, 3, 15, 12, 9, 8, 7, 3, 13, 11, 9, 8, 5, 3, 15, 14, 12, 11, 9, 8, 15, 13, 13, 11, 7, 7, 16, 16, 15, 13, 12, 12, 7, 6, 6, 6, 6, 6, 8, 8, 7, 6, 6, 5, 19, 16, 16, 13, 11, 11, 17, 15, 13, 11, 10, 6, 17, 16, 16, 15, 13, 13, 19, 17, 13, 11, 9, 7, 19, 19, 19, 19, 19, 19, 18, 15, 13, 13, 11, 9, 20, 17, 16, 14, 12, 9, 19, 18, 17, 17, 16, 16, 8, 7, 5, 5, 3, 1, 17, 15, 15, 13, 11, 11, 19, 17, 16, 14, 12, 9, 13, 13, 10, 6, 3, 2, 18, 15, 14, 13, 10, 9, 9, 9, 9, 9, 9, 9, 19, 18, 18, 18, 17, 17, 14, 13, 12, 10, 9, 9, 11, 10, 9, 9, 8, 8, 18, 13, 12, 9, 8, 6, 11, 10, 10, 8, 5, 4, 14, 14, 14, 13, 13, 13, 4, 3, 3, 3, 1, 1, 15, 15, 13, 11, 9, 5, 9, 8, 6, 6, 5, 4, 12, 10, 8, 7, 7, 4, 18, 15, 13, 12, 10, 10, 16, 14, 13, 11, 7, 6, 5, 5, 5, 4, 4, 4, 14, 11, 11, 7, 7, 4, 14, 14, 14, 14, 14, 14, 18, 14, 13, 12, 9, 7
 |11, 11, 9, 6, 4, 2, 3, 3, 3, 3, 3, 3, 13, 13, 13, 13, 12, 12, 6, 6, 6, 5, 5, 5, 16, 13, 12, 11, 10, 8, 15, 14, 13, 12, 12, 11, 10, 10, 10, 10, 10, 10, 8, 8, 8, 7, 7, 6, 15, 14, 11, 9, 4, 1, 16, 15, 15, 14, 14, 14, 12, 11, 10, 10, 9, 9, 3, 2, 2, 2, 2, 2, 17, 15, 13, 10, 9, 8, 18, 17, 17, 16, 14, 14, 19, 18, 15, 14, 13, 11, 15, 12, 11, 10, 10, 8, 16, 13, 12, 10, 10, 9, 11, 11, 11, 11, 10, 10, 18, 17, 12, 9, 8, 6, 11, 10, 8, 7, 7, 6, 12, 10, 10, 9, 8, 8, 8, 8, 6, 6, 5, 3, 13, 12, 12, 10, 9, 9, 4, 4, 4, 4, 4, 4, 12, 12, 11, 10, 9, 8, 20, 17, 13, 10, 10, 7, 8, 6, 5, 4, 3, 2, 17, 15, 14, 11, 8, 7, 16, 14, 10, 10, 8, 4, 13, 10, 8, 6, 6, 4, 17, 17, 17, 17, 17, 17, 10, 9, 9, 9, 7, 7, 10, 9, 9, 8, 8, 7, 18, 16, 16, 15, 14, 13, 12, 11, 9, 8, 6, 4, 19, 18, 18, 18, 17, 16, 18, 16, 15, 15, 14, 13, 12, 11, 11, 10, 10, 10, 17, 16, 16, 15, 14, 14, 10, 10, 10, 9, 8, 8, 11, 10, 8, 7, 7, 6, 11, 11, 11, 11, 11, 11, 9, 9, 9, 9, 9, 9, 15, 15, 14, 13, 11, 11, 13, 13, 12, 12, 12, 11, 14, 13, 12, 11, 10, 10, 11, 11, 11, 11, 10, 10, 14, 13, 11, 8, 7, 6, 10, 8, 8, 6, 6, 4, 13, 10, 10, 8, 7, 6
 |11, 10, 8, 7, 5, 4, 15, 13, 12, 9, 8, 7, 17, 17, 17, 17, 17, 17, 16, 15, 14, 14, 13, 12, 15, 14, 12, 12, 11, 10, 12, 11, 10, 9, 9, 8, 9, 9, 8, 9, 9, 9, 15, 14, 12, 11, 8, 8, 17, 16, 16, 16, 14, 14, 19, 16, 13, 13, 10, 9, 17, 16, 16, 15, 15, 14, 8, 8, 7, 7, 7, 6, 8, 8, 7, 7, 6, 6, 11, 9, 9, 6, 6, 5, 4, 3, 3, 2, 2, 2, 7, 5, 5, 4, 2, 2, 13, 13, 11, 9, 6, 3, 18, 17, 17, 16, 16, 15, 16, 14, 13, 12, 11, 9, 9, 9, 9, 8, 8, 8, 17, 16, 14, 14, 13, 11, 14, 13, 12, 10, 9, 9, 14, 13, 12, 12, 11, 10, 19, 16, 14, 12, 12, 10, 19, 14, 12, 9, 7, 5, 16, 15, 15, 13, 13, 12, 18, 17, 17, 16, 15, 15, 15, 14, 14, 13, 11, 11, 9, 9, 9, 9, 8, 8, 7, 6, 6, 6, 6, 6, 18, 17, 15, 14, 13, 13, 17, 13, 11, 9, 7, 3, 12, 11, 11, 11, 10, 9, 12, 11, 11, 11, 10, 10, 14, 14, 14, 14, 14, 14, 17, 16, 12, 10, 9, 8, 9, 8, 8, 6, 5, 5, 18, 17, 13, 11, 9, 7, 6, 6, 6, 6, 5, 5, 5, 4, 3, 3, 2, 1, 19, 18, 18, 18, 18, 18, 19, 17, 14, 13, 10, 8, 15, 11, 10, 7, 3, 3, 19, 16, 13, 13, 8, 7, 9, 6, 5, 5, 3, 3, 16, 16, 16, 16, 16, 16, 17, 16, 15, 15, 14, 12, 3, 3, 2, 2, 2, 1, 7, 7, 7, 7, 6, 6, 16, 15, 14, 14, 14, 13|];